(set-info :Origin "This instance was generated by: BanditFuzz-- an RL fuzzer for SMT solvers" )
(set-info :Author "Joe Scott, Fed Mora, Vijay Ganesh" )
(set-info :Contact "Joe Scott, joseph.scott@uwaterloo.ca")
(set-logic QF_BV)
(declare-const bool_0 Bool)
(declare-const bool_1 Bool)
(declare-const bool_2 Bool)
(declare-const bool_3 Bool)
(declare-const bool_4 Bool)
(declare-const bv_0 (_ BitVec 32))
(declare-const bv_1 (_ BitVec 32))
(declare-const bv_2 (_ BitVec 32))
(declare-const bv_3 (_ BitVec 32))
(declare-const bv_4 (_ BitVec 32))
(assert (or (or (bvsle bv_1 #x9f74dd85 ) (and bool_4 false)) (bvugt (bvsdiv #xb012b397  bv_2) (bvsrem bv_0 bv_2))))
(assert (bvsge (bvsmod (bvsub #x8cc6d686  #x27af7a34 ) (bvnand #x563bfad8  #x5da1db61 )) (bvxor (bvxnor bv_2 bv_3) (bvand #x5718a5bc  #x7d0a0aaf ))))
(assert (bvsgt (bvxnor (bvand #xde52d296  bv_1) (bvand bv_2 #x41a4e87d )) (bvsub (bvand #x92613e08  bv_2) (bvsub bv_3 bv_4))))
(assert (bvsge (bvlshr (bvsrem #x9543af87  bv_2) (bvudiv #xa9b3d49f  bv_1)) (bvshl (bvxnor bv_3 bv_1) (bvlshr bv_0 bv_0))))
(assert (bvsge (bvand (bvurem bv_4 #x2401642b ) (bvsrem bv_4 bv_0)) (bvadd (bvurem bv_1 #x94d5606f ) (bvnor bv_0 #x94d91a7d ))))
(check-sat)
(exit)
